p edge 43 274
e 1 4
e 1 5
e 1 16
e 1 20
e 1 24
e 1 29
e 1 33
e 1 35
e 1 41
e 2 10
e 2 11
e 2 12
e 2 19
e 2 20
e 2 23
e 2 24
e 2 25
e 2 29
e 2 30
e 2 32
e 2 41
e 2 42
e 3 6
e 3 7
e 3 9
e 3 10
e 3 12
e 3 15
e 3 16
e 3 17
e 3 21
e 3 23
e 3 31
e 3 34
e 3 35
e 3 40
e 3 43
e 4 7
e 4 15
e 4 26
e 4 28
e 4 30
e 4 31
e 4 32
e 4 33
e 4 36
e 4 38
e 4 39
e 4 40
e 4 41
e 4 42
e 5 6
e 5 8
e 5 9
e 5 18
e 5 19
e 5 22
e 5 23
e 5 27
e 5 29
e 5 34
e 5 38
e 5 39
e 6 10
e 6 13
e 6 20
e 6 24
e 6 26
e 6 27
e 6 32
e 6 41
e 7 10
e 7 13
e 7 29
e 7 31
e 7 38
e 8 16
e 8 24
e 8 26
e 8 36
e 8 41
e 8 42
e 9 11
e 9 12
e 9 17
e 9 20
e 9 21
e 9 22
e 9 25
e 9 27
e 9 32
e 9 33
e 9 35
e 9 36
e 9 39
e 9 42
e 10 12
e 10 14
e 10 17
e 10 18
e 10 23
e 10 26
e 10 30
e 10 38
e 10 39
e 10 40
e 10 41
e 11 13
e 11 14
e 11 19
e 11 21
e 11 29
e 11 30
e 11 31
e 11 33
e 11 38
e 11 41
e 12 17
e 12 18
e 12 21
e 12 30
e 12 37
e 12 42
e 12 43
e 13 20
e 13 21
e 13 24
e 13 27
e 13 28
e 13 30
e 13 32
e 13 33
e 13 35
e 13 39
e 13 43
e 14 15
e 14 19
e 14 20
e 14 21
e 14 24
e 14 25
e 14 26
e 14 30
e 14 34
e 14 40
e 14 41
e 15 16
e 15 18
e 15 22
e 15 26
e 15 32
e 15 37
e 15 39
e 16 17
e 16 22
e 16 25
e 16 28
e 16 29
e 16 30
e 16 33
e 16 41
e 16 42
e 17 18
e 17 20
e 17 21
e 17 22
e 17 28
e 17 30
e 17 32
e 17 36
e 17 39
e 17 41
e 18 19
e 18 23
e 18 29
e 18 41
e 18 43
e 19 24
e 19 25
e 19 27
e 19 31
e 19 32
e 19 33
e 19 38
e 20 23
e 20 29
e 20 34
e 20 38
e 20 40
e 20 41
e 21 23
e 21 24
e 21 25
e 21 26
e 21 32
e 21 34
e 21 41
e 21 43
e 22 23
e 22 26
e 22 30
e 22 32
e 22 39
e 22 42
e 22 43
e 23 25
e 23 26
e 23 27
e 23 28
e 23 30
e 23 31
e 23 41
e 23 42
e 24 26
e 24 30
e 24 32
e 24 33
e 24 35
e 24 40
e 25 27
e 25 28
e 25 29
e 25 30
e 25 32
e 25 38
e 25 39
e 25 40
e 25 41
e 25 43
e 26 27
e 26 30
e 26 37
e 26 38
e 26 43
e 27 30
e 27 31
e 27 32
e 27 34
e 27 36
e 27 38
e 27 41
e 28 33
e 28 34
e 28 37
e 28 42
e 29 32
e 30 33
e 30 35
e 30 39
e 30 40
e 31 34
e 31 39
e 31 43
e 32 35
e 32 38
e 32 39
e 32 43
e 33 41
e 34 35
e 34 41
e 34 42
e 35 37
e 35 38
e 36 41
e 38 39
e 38 41
e 38 42
e 39 40
e 39 41
e 39 43
e 40 41
e 40 43
e 41 42
e 41 43
